
  12    4
  10   10   10   10

   0   0   0   0   0   3 2 3 4 
   3  10  10  10  10   2 7 5 
  10  10  10  10  10   3 10 7 6 
   8  10  10  10  10   3 10 7 6 
   6  10  10  10  10   3 10 8 6 
   3  10  10  10  10   1 9 
  10  10  10  10  10   1 8 
  10  10  10  10  10   1 11 
   3  10  10  10  10   1 11 
   9  10  10  10  10   1 11 
   5  10  10  10  10   1 12
   0   0   0   0   0   0 
